
Gurobi 12.0.3 (win64) logging started Sun Nov  9 22:24:47 2025

Set parameter LogFile to value "Results\1_percent\budget_30000\stage_2\gurobi.log"
Gurobi Optimizer version 12.0.3 build v12.0.3rc0 (win64 - Windows 11+.0 (26200.2))

CPU model: Intel(R) Core(TM) Ultra 7 265K, instruction set [SSE2|AVX|AVX2]
Thread count: 20 physical cores, 20 logical processors, using up to 20 threads

Non-default parameters:
TimeLimit  86400

Optimize a model with 109182 rows, 109283 columns and 436575 nonzeros
Model fingerprint: 0xfbf073b7
Variable types: 0 continuous, 109283 integer (383 binary)
Coefficient statistics:
  Matrix range     [1e+00, 2e+03]
  Objective range  [1e+00, 1e+00]
  Bounds range     [1e+00, 1e+00]
  RHS range        [1e+00, 3e+04]
Found heuristic solution: objective -0.0000000
Presolve removed 108040 rows and 330 columns
Presolve time: 0.05s
Presolved: 1142 rows, 108953 columns, 328532 nonzeros
Variable types: 0 continuous, 108953 integer (383 binary)
Performing another presolve...
Presolve removed 905 rows and 0 columns
Presolve time: 0.33s
Deterministic concurrent LP optimizer: primal and dual simplex
Showing primal log only...

Concurrent spin time: 0.00s

Solved with primal simplex

Root relaxation: objective 1.121915e+02, 22442 iterations, 0.43 seconds (0.63 work units)

    Nodes    |    Current Node    |     Objective Bounds      |     Work
 Expl Unexpl |  Obj  Depth IntInf | Incumbent    BestBd   Gap | It/Node Time

     0     0  112.19153    0  431   -0.00000  112.19153      -     -    1s
H    0     0                       4.0000000  112.19153  2705%     -    1s
H    0     0                      16.0000000  112.19153   601%     -    1s
H    0     0                     107.0000000  112.19153  4.85%     -    1s
H    0     0                     110.0000000  112.19153  1.99%     -    1s
     0     0  111.58974    0  450  110.00000  111.58974  1.45%     -    3s
     0     0  111.58974    0  420  110.00000  111.58974  1.45%     -    4s
     0     0  111.58892    0  434  110.00000  111.58892  1.44%     -    6s
H    0     0                     111.0000000  111.58892  0.53%     -    7s

Cutting planes:
  Zero half: 8

Explored 1 nodes (41047 simplex iterations) in 7.11 seconds (7.15 work units)
Thread count was 20 (of 20 available processors)

Solution count 6: 111 110 107 ... -0

Optimal solution found (tolerance 1.00e-04)
Best objective 1.110000000000e+02, best bound 1.110000000000e+02, gap 0.0000%
